c t mc
c file track1_093.cnf
p cnf 1548 1783
-1 2 0
1  -2 0
-2 3 0
2  -3 0
-3 -329 4 0
-3 329 -4 0
3 -330 4 0
3 330 -4 0
-4 -331 5 0
-4 331 -5 0
4 -332 5 0
4 332 -5 0
-5  -6 0
5 6 0
-6  -7 0
6 7 0
-7 -337 8 0
-7 337 -8 0
7 -338 8 0
7 338 -8 0
-8 9 0
8  -9 0
-9 -341 10 0
-9 341 -10 0
9 -342 10 0
9 342 -10 0
-10 -343 11 0
-10 343 -11 0
10 -344 11 0
10 344 -11 0
-11  -12 0
11 12 0
-12 -347 13 0
-12 347 -13 0
12 -348 13 0
12 348 -13 0
-13 14 0
13  -14 0
-14  -15 0
14 15 0
-15 16 0
15  -16 0
-16 17 0
16  -17 0
-17 -357 18 0
-17 357 -18 0
17 -358 18 0
17 358 -18 0
-1 -359 19 0
-1 359 -19 0
1 -360 19 0
1 360 -19 0
-19 -2 -361 20 0
-19 -2 361 -20 0
-19 2 -362 20 0
-19 2 362 -20 0
19 -2 -363 20 0
19 -2 363 -20 0
19 2 -364 20 0
19 2 364 -20 0
-20 -3 -365 21 0
-20 -3 365 -21 0
-20 3 -366 21 0
-20 3 366 -21 0
20 -3 -367 21 0
20 -3 367 -21 0
20 3 -368 21 0
20 3 368 -21 0
-21 -4 -369 22 0
-21 -4 369 -22 0
-21 4 -370 22 0
-21 4 370 -22 0
21 -4 -371 22 0
21 -4 371 -22 0
21 4 -372 22 0
21 4 372 -22 0
-22 -5  -23 0
-22 5 23 0
22 -5 23 0
22 5  -23 0
-23 -6 -377 24 0
-23 -6 377 -24 0
-23 6 -378 24 0
-23 6 378 -24 0
23 -6 -379 24 0
23 -6 379 -24 0
23 6 -380 24 0
23 6 380 -24 0
-24 -7 25 0
-24 7  -25 0
24 -7 25 0
24 7 25 0
-25 -8 -385 26 0
-25 -8 385 -26 0
-25 8 -386 26 0
-25 8 386 -26 0
25 -8 -387 26 0
25 -8 387 -26 0
25 8 -388 26 0
25 8 388 -26 0
-26 -9  -27 0
-26 9 27 0
26 -9 27 0
26 9  -27 0
-27 -10  -28 0
-27 10  -28 0
27 -10 28 0
27 10  -28 0
-28 -11 -397 29 0
-28 -11 397 -29 0
-28 11 -398 29 0
-28 11 398 -29 0
28 -11 -399 29 0
28 -11 399 -29 0
28 11 -400 29 0
28 11 400 -29 0
-29 -12 -401 30 0
-29 -12 401 -30 0
-29 12 -402 30 0
-29 12 402 -30 0
29 -12 -403 30 0
29 -12 403 -30 0
29 12 -404 30 0
29 12 404 -30 0
-30 -13  -31 0
-30 13 31 0
30 -13  -31 0
30 13  -31 0
-31 -14 -409 32 0
-31 -14 409 -32 0
-31 14 -410 32 0
-31 14 410 -32 0
31 -14 -411 32 0
31 -14 411 -32 0
31 14 -412 32 0
31 14 412 -32 0
-32 -15 -413 33 0
-32 -15 413 -33 0
-32 15 -414 33 0
-32 15 414 -33 0
32 -15 -415 33 0
32 -15 415 -33 0
32 15 -416 33 0
32 15 416 -33 0
-33 -16 34 0
-33 16 34 0
33 -16  -34 0
33 16  -34 0
-34 -17  -35 0
-34 17 35 0
34 -17 35 0
34 17 35 0
-35 -18 -425 36 0
-35 -18 425 -36 0
-35 18 -426 36 0
-35 18 426 -36 0
35 -18 -427 36 0
35 -18 427 -36 0
35 18 -428 36 0
35 18 428 -36 0
-19  -37 0
19 37 0
-37 -20 38 0
-37 20  -38 0
37 -20 38 0
37 20  -38 0
-38 -21  -39 0
-38 21 39 0
38 -21 39 0
38 21 39 0
-39 -22 -439 40 0
-39 -22 439 -40 0
-39 22 -440 40 0
-39 22 440 -40 0
39 -22 -441 40 0
39 -22 441 -40 0
39 22 -442 40 0
39 22 442 -40 0
-40 -23 -443 41 0
-40 -23 443 -41 0
-40 23 -444 41 0
-40 23 444 -41 0
40 -23 -445 41 0
40 -23 445 -41 0
40 23 -446 41 0
40 23 446 -41 0
-41 -24 -447 42 0
-41 -24 447 -42 0
-41 24 -448 42 0
-41 24 448 -42 0
41 -24 -449 42 0
41 -24 449 -42 0
41 24 -450 42 0
41 24 450 -42 0
-42 -25 -451 43 0
-42 -25 451 -43 0
-42 25 -452 43 0
-42 25 452 -43 0
42 -25 -453 43 0
42 -25 453 -43 0
42 25 -454 43 0
42 25 454 -43 0
-43 -26 -455 44 0
-43 -26 455 -44 0
-43 26 -456 44 0
-43 26 456 -44 0
43 -26 -457 44 0
43 -26 457 -44 0
43 26 -458 44 0
43 26 458 -44 0
-44 -27  -45 0
-44 27  -45 0
44 -27  -45 0
44 27 45 0
-45 -28 -463 46 0
-45 -28 463 -46 0
-45 28 -464 46 0
-45 28 464 -46 0
45 -28 -465 46 0
45 -28 465 -46 0
45 28 -466 46 0
45 28 466 -46 0
-46 -29 47 0
-46 29 47 0
46 -29  -47 0
46 29  -47 0
-47 -30  -48 0
-47 30  -48 0
47 -30  -48 0
47 30 48 0
-48 -31 49 0
-48 31  -49 0
48 -31 49 0
48 31 49 0
-49 -32 -479 50 0
-49 -32 479 -50 0
-49 32 -480 50 0
-49 32 480 -50 0
49 -32 -481 50 0
49 -32 481 -50 0
49 32 -482 50 0
49 32 482 -50 0
-50 -33  -51 0
-50 33 51 0
50 -33  -51 0
50 33 51 0
-51 -34 52 0
-51 34 52 0
51 -34  -52 0
51 34 52 0
-52 -35 -491 53 0
-52 -35 491 -53 0
-52 35 -492 53 0
-52 35 492 -53 0
52 -35 -493 53 0
52 -35 493 -53 0
52 35 -494 53 0
52 35 494 -53 0
-53 -36 -495 54 0
-53 -36 495 -54 0
-53 36 -496 54 0
-53 36 496 -54 0
53 -36 -497 54 0
53 -36 497 -54 0
53 36 -498 54 0
53 36 498 -54 0
-37  -55 0
37 55 0
-55 -38 -501 56 0
-55 -38 501 -56 0
-55 38 -502 56 0
-55 38 502 -56 0
55 -38 -503 56 0
55 -38 503 -56 0
55 38 -504 56 0
55 38 504 -56 0
-56 -39  -57 0
-56 39 57 0
56 -39 57 0
56 39  -57 0
-57 -40 -509 58 0
-57 -40 509 -58 0
-57 40 -510 58 0
-57 40 510 -58 0
57 -40 -511 58 0
57 -40 511 -58 0
57 40 -512 58 0
57 40 512 -58 0
-58 -41 59 0
-58 41 59 0
58 -41  -59 0
58 41 59 0
-59 -42 -517 60 0
-59 -42 517 -60 0
-59 42 -518 60 0
-59 42 518 -60 0
59 -42 -519 60 0
59 -42 519 -60 0
59 42 -520 60 0
59 42 520 -60 0
-60 -43  -61 0
-60 43 61 0
60 -43 61 0
60 43 61 0
-61 -44 62 0
-61 44  -62 0
61 -44 62 0
61 44 62 0
-62 -45 -529 63 0
-62 -45 529 -63 0
-62 45 -530 63 0
-62 45 530 -63 0
62 -45 -531 63 0
62 -45 531 -63 0
62 45 -532 63 0
62 45 532 -63 0
-63 -46  -64 0
-63 46  -64 0
63 -46 64 0
63 46  -64 0
-64 -47 -537 65 0
-64 -47 537 -65 0
-64 47 -538 65 0
-64 47 538 -65 0
64 -47 -539 65 0
64 -47 539 -65 0
64 47 -540 65 0
64 47 540 -65 0
-65 -48  -66 0
-65 48 66 0
65 -48  -66 0
65 48  -66 0
-66 -49 -545 67 0
-66 -49 545 -67 0
-66 49 -546 67 0
-66 49 546 -67 0
66 -49 -547 67 0
66 -49 547 -67 0
66 49 -548 67 0
66 49 548 -67 0
-67 -50  -68 0
-67 50  -68 0
67 -50 68 0
67 50 68 0
-68 -51 -553 69 0
-68 -51 553 -69 0
-68 51 -554 69 0
-68 51 554 -69 0
68 -51 -555 69 0
68 -51 555 -69 0
68 51 -556 69 0
68 51 556 -69 0
-69 -52 -557 70 0
-69 -52 557 -70 0
-69 52 -558 70 0
-69 52 558 -70 0
69 -52 -559 70 0
69 -52 559 -70 0
69 52 -560 70 0
69 52 560 -70 0
-70 -53 -561 71 0
-70 -53 561 -71 0
-70 53 -562 71 0
-70 53 562 -71 0
70 -53 -563 71 0
70 -53 563 -71 0
70 53 -564 71 0
70 53 564 -71 0
-71 -54 72 0
-71 54 72 0
71 -54  -72 0
71 54 72 0
-55 -569 73 0
-55 569 -73 0
55 -570 73 0
55 570 -73 0
-73 -56  -74 0
-73 56 74 0
73 -56 74 0
73 56  -74 0
-74 -57  -75 0
-74 57  -75 0
74 -57 75 0
74 57  -75 0
-75 -58 -579 76 0
-75 -58 579 -76 0
-75 58 -580 76 0
-75 58 580 -76 0
75 -58 -581 76 0
75 -58 581 -76 0
75 58 -582 76 0
75 58 582 -76 0
-76 -59 -583 77 0
-76 -59 583 -77 0
-76 59 -584 77 0
-76 59 584 -77 0
76 -59 -585 77 0
76 -59 585 -77 0
76 59 -586 77 0
76 59 586 -77 0
-77 -60 -587 78 0
-77 -60 587 -78 0
-77 60 -588 78 0
-77 60 588 -78 0
77 -60 -589 78 0
77 -60 589 -78 0
77 60 -590 78 0
77 60 590 -78 0
-78 -61 -591 79 0
-78 -61 591 -79 0
-78 61 -592 79 0
-78 61 592 -79 0
78 -61 -593 79 0
78 -61 593 -79 0
78 61 -594 79 0
78 61 594 -79 0
-79 -62 -595 80 0
-79 -62 595 -80 0
-79 62 -596 80 0
-79 62 596 -80 0
79 -62 -597 80 0
79 -62 597 -80 0
79 62 -598 80 0
79 62 598 -80 0
-80 -63 81 0
-80 63  -81 0
80 -63  -81 0
80 63  -81 0
-81 -64 -603 82 0
-81 -64 603 -82 0
-81 64 -604 82 0
-81 64 604 -82 0
81 -64 -605 82 0
81 -64 605 -82 0
81 64 -606 82 0
81 64 606 -82 0
-82 -65 -607 83 0
-82 -65 607 -83 0
-82 65 -608 83 0
-82 65 608 -83 0
82 -65 -609 83 0
82 -65 609 -83 0
82 65 -610 83 0
82 65 610 -83 0
-83 -66 84 0
-83 66  -84 0
83 -66  -84 0
83 66  -84 0
-84 -67 -615 85 0
-84 -67 615 -85 0
-84 67 -616 85 0
-84 67 616 -85 0
84 -67 -617 85 0
84 -67 617 -85 0
84 67 -618 85 0
84 67 618 -85 0
-85 -68  -86 0
-85 68 86 0
85 -68 86 0
85 68 86 0
-86 -69 87 0
-86 69  -87 0
86 -69 87 0
86 69  -87 0
-87 -70 88 0
-87 70 88 0
87 -70  -88 0
87 70 88 0
-88 -71 -631 89 0
-88 -71 631 -89 0
-88 71 -632 89 0
-88 71 632 -89 0
88 -71 -633 89 0
88 -71 633 -89 0
88 71 -634 89 0
88 71 634 -89 0
-89 -72  -90 0
-89 72  -90 0
89 -72 90 0
89 72 90 0
-73 91 0
73  -91 0
-91 -74  -92 0
-91 74 92 0
91 -74  -92 0
91 74 92 0
-92 -75 -645 93 0
-92 -75 645 -93 0
-92 75 -646 93 0
-92 75 646 -93 0
92 -75 -647 93 0
92 -75 647 -93 0
92 75 -648 93 0
92 75 648 -93 0
-93 -76 -649 94 0
-93 -76 649 -94 0
-93 76 -650 94 0
-93 76 650 -94 0
93 -76 -651 94 0
93 -76 651 -94 0
93 76 -652 94 0
93 76 652 -94 0
-94 -77 95 0
-94 77 95 0
94 -77  -95 0
94 77  -95 0
-95 -78 -657 96 0
-95 -78 657 -96 0
-95 78 -658 96 0
-95 78 658 -96 0
95 -78 -659 96 0
95 -78 659 -96 0
95 78 -660 96 0
95 78 660 -96 0
-96 -79 97 0
-96 79  -97 0
96 -79 97 0
96 79 97 0
-97 -80  -98 0
-97 80 98 0
97 -80 98 0
97 80  -98 0
-98 -81 -669 99 0
-98 -81 669 -99 0
-98 81 -670 99 0
-98 81 670 -99 0
98 -81 -671 99 0
98 -81 671 -99 0
98 81 -672 99 0
98 81 672 -99 0
-99 -82 100 0
-99 82 100 0
99 -82  -100 0
99 82 100 0
-100 -83 101 0
-100 83 101 0
100 -83  -101 0
100 83 101 0
-101 -84  -102 0
-101 84 102 0
101 -84 102 0
101 84 102 0
-102 -85 -685 103 0
-102 -85 685 -103 0
-102 85 -686 103 0
-102 85 686 -103 0
102 -85 -687 103 0
102 -85 687 -103 0
102 85 -688 103 0
102 85 688 -103 0
-103 -86 -689 104 0
-103 -86 689 -104 0
-103 86 -690 104 0
-103 86 690 -104 0
103 -86 -691 104 0
103 -86 691 -104 0
103 86 -692 104 0
103 86 692 -104 0
-104 -87  -105 0
-104 87 105 0
104 -87  -105 0
104 87  -105 0
-105 -88 106 0
-105 88 106 0
105 -88  -106 0
105 88 106 0
-106 -89  -107 0
-106 89 107 0
106 -89  -107 0
106 89  -107 0
-107 -90 -705 108 0
-107 -90 705 -108 0
-107 90 -706 108 0
-107 90 706 -108 0
107 -90 -707 108 0
107 -90 707 -108 0
107 90 -708 108 0
107 90 708 -108 0
-91 -709 109 0
-91 709 -109 0
91 -710 109 0
91 710 -109 0
-109 -92  -110 0
-109 92  -110 0
109 -92 110 0
109 92  -110 0
-110 -93 -715 111 0
-110 -93 715 -111 0
-110 93 -716 111 0
-110 93 716 -111 0
110 -93 -717 111 0
110 -93 717 -111 0
110 93 -718 111 0
110 93 718 -111 0
-111 -94 -719 112 0
-111 -94 719 -112 0
-111 94 -720 112 0
-111 94 720 -112 0
111 -94 -721 112 0
111 -94 721 -112 0
111 94 -722 112 0
111 94 722 -112 0
-112 -95 -723 113 0
-112 -95 723 -113 0
-112 95 -724 113 0
-112 95 724 -113 0
112 -95 -725 113 0
112 -95 725 -113 0
112 95 -726 113 0
112 95 726 -113 0
-113 -96 -727 114 0
-113 -96 727 -114 0
-113 96 -728 114 0
-113 96 728 -114 0
113 -96 -729 114 0
113 -96 729 -114 0
113 96 -730 114 0
113 96 730 -114 0
-114 -97  -115 0
-114 97  -115 0
114 -97 115 0
114 97  -115 0
-115 -98  -116 0
-115 98  -116 0
115 -98 116 0
115 98  -116 0
-116 -99 -739 117 0
-116 -99 739 -117 0
-116 99 -740 117 0
-116 99 740 -117 0
116 -99 -741 117 0
116 -99 741 -117 0
116 99 -742 117 0
116 99 742 -117 0
-117 -100  -118 0
-117 100  -118 0
117 -100 118 0
117 100  -118 0
-118 -101 -747 119 0
-118 -101 747 -119 0
-118 101 -748 119 0
-118 101 748 -119 0
118 -101 -749 119 0
118 -101 749 -119 0
118 101 -750 119 0
118 101 750 -119 0
-119 -102 -751 120 0
-119 -102 751 -120 0
-119 102 -752 120 0
-119 102 752 -120 0
119 -102 -753 120 0
119 -102 753 -120 0
119 102 -754 120 0
119 102 754 -120 0
-120 -103 121 0
-120 103  -121 0
120 -103 121 0
120 103 121 0
-121 -104 -759 122 0
-121 -104 759 -122 0
-121 104 -760 122 0
-121 104 760 -122 0
121 -104 -761 122 0
121 -104 761 -122 0
121 104 -762 122 0
121 104 762 -122 0
-122 -105 123 0
-122 105  -123 0
122 -105  -123 0
122 105  -123 0
-123 -106  -124 0
-123 106  -124 0
123 -106 124 0
123 106 124 0
-124 -107 125 0
-124 107 125 0
124 -107 125 0
124 107  -125 0
-125 -108 126 0
-125 108  -126 0
125 -108  -126 0
125 108 126 0
-109  -127 0
109 127 0
-127 -110 -781 128 0
-127 -110 781 -128 0
-127 110 -782 128 0
-127 110 782 -128 0
127 -110 -783 128 0
127 -110 783 -128 0
127 110 -784 128 0
127 110 784 -128 0
-128 -111 -785 129 0
-128 -111 785 -129 0
-128 111 -786 129 0
-128 111 786 -129 0
128 -111 -787 129 0
128 -111 787 -129 0
128 111 -788 129 0
128 111 788 -129 0
-129 -112 130 0
-129 112  -130 0
129 -112  -130 0
129 112 130 0
-130 -113 131 0
-130 113 131 0
130 -113  -131 0
130 113  -131 0
-131 -114 132 0
-131 114  -132 0
131 -114 132 0
131 114 132 0
-132 -115 -801 133 0
-132 -115 801 -133 0
-132 115 -802 133 0
-132 115 802 -133 0
132 -115 -803 133 0
132 -115 803 -133 0
132 115 -804 133 0
132 115 804 -133 0
-133 -116 134 0
-133 116  -134 0
133 -116 134 0
133 116 134 0
-134 -117  -135 0
-134 117  -135 0
134 -117  -135 0
134 117 135 0
-135 -118 136 0
-135 118  -136 0
135 -118  -136 0
135 118 136 0
-136 -119 -817 137 0
-136 -119 817 -137 0
-136 119 -818 137 0
-136 119 818 -137 0
136 -119 -819 137 0
136 -119 819 -137 0
136 119 -820 137 0
136 119 820 -137 0
-137 -120 138 0
-137 120  -138 0
137 -120  -138 0
137 120  -138 0
-138 -121 139 0
-138 121 139 0
138 -121  -139 0
138 121 139 0
-139 -122 -829 140 0
-139 -122 829 -140 0
-139 122 -830 140 0
-139 122 830 -140 0
139 -122 -831 140 0
139 -122 831 -140 0
139 122 -832 140 0
139 122 832 -140 0
-140 -123  -141 0
-140 123 141 0
140 -123 141 0
140 123  -141 0
-141 -124 142 0
-141 124 142 0
141 -124  -142 0
141 124  -142 0
-142 -125  -143 0
-142 125  -143 0
142 -125  -143 0
142 125 143 0
-143 -126 -845 144 0
-143 -126 845 -144 0
-143 126 -846 144 0
-143 126 846 -144 0
143 -126 -847 144 0
143 -126 847 -144 0
143 126 -848 144 0
143 126 848 -144 0
-127 -849 145 0
-127 849 -145 0
127 -850 145 0
127 850 -145 0
-145 -128 -851 146 0
-145 -128 851 -146 0
-145 128 -852 146 0
-145 128 852 -146 0
145 -128 -853 146 0
145 -128 853 -146 0
145 128 -854 146 0
145 128 854 -146 0
-146 -129 -855 147 0
-146 -129 855 -147 0
-146 129 -856 147 0
-146 129 856 -147 0
146 -129 -857 147 0
146 -129 857 -147 0
146 129 -858 147 0
146 129 858 -147 0
-147 -130 -859 148 0
-147 -130 859 -148 0
-147 130 -860 148 0
-147 130 860 -148 0
147 -130 -861 148 0
147 -130 861 -148 0
147 130 -862 148 0
147 130 862 -148 0
-148 -131 -863 149 0
-148 -131 863 -149 0
-148 131 -864 149 0
-148 131 864 -149 0
148 -131 -865 149 0
148 -131 865 -149 0
148 131 -866 149 0
148 131 866 -149 0
-149 -132 -867 150 0
-149 -132 867 -150 0
-149 132 -868 150 0
-149 132 868 -150 0
149 -132 -869 150 0
149 -132 869 -150 0
149 132 -870 150 0
149 132 870 -150 0
-150 -133 151 0
-150 133  -151 0
150 -133  -151 0
150 133  -151 0
-151 -134 152 0
-151 134  -152 0
151 -134  -152 0
151 134 152 0
-152 -135 153 0
-152 135  -153 0
152 -135 153 0
152 135 153 0
-153 -136  -154 0
-153 136  -154 0
153 -136 154 0
153 136 154 0
-154 -137 155 0
-154 137 155 0
154 -137  -155 0
154 137  -155 0
-155 -138  -156 0
-155 138 156 0
155 -138 156 0
155 138 156 0
-156 -139 157 0
-156 139  -157 0
156 -139 157 0
156 139  -157 0
-157 -140 -899 158 0
-157 -140 899 -158 0
-157 140 -900 158 0
-157 140 900 -158 0
157 -140 -901 158 0
157 -140 901 -158 0
157 140 -902 158 0
157 140 902 -158 0
-158 -141  -159 0
-158 141  -159 0
158 -141 159 0
158 141 159 0
-159 -142 -907 160 0
-159 -142 907 -160 0
-159 142 -908 160 0
-159 142 908 -160 0
159 -142 -909 160 0
159 -142 909 -160 0
159 142 -910 160 0
159 142 910 -160 0
-160 -143 -911 161 0
-160 -143 911 -161 0
-160 143 -912 161 0
-160 143 912 -161 0
160 -143 -913 161 0
160 -143 913 -161 0
160 143 -914 161 0
160 143 914 -161 0
-161 -144  -162 0
-161 144  -162 0
161 -144 162 0
161 144 162 0
-145  -163 0
145 163 0
-163 -146 -921 164 0
-163 -146 921 -164 0
-163 146 -922 164 0
-163 146 922 -164 0
163 -146 -923 164 0
163 -146 923 -164 0
163 146 -924 164 0
163 146 924 -164 0
-164 -147 165 0
-164 147 165 0
164 -147 165 0
164 147  -165 0
-165 -148 -929 166 0
-165 -148 929 -166 0
-165 148 -930 166 0
-165 148 930 -166 0
165 -148 -931 166 0
165 -148 931 -166 0
165 148 -932 166 0
165 148 932 -166 0
-166 -149 167 0
-166 149  -167 0
166 -149 167 0
166 149  -167 0
-167 -150 -937 168 0
-167 -150 937 -168 0
-167 150 -938 168 0
-167 150 938 -168 0
167 -150 -939 168 0
167 -150 939 -168 0
167 150 -940 168 0
167 150 940 -168 0
-168 -151 -941 169 0
-168 -151 941 -169 0
-168 151 -942 169 0
-168 151 942 -169 0
168 -151 -943 169 0
168 -151 943 -169 0
168 151 -944 169 0
168 151 944 -169 0
-169 -152 -945 170 0
-169 -152 945 -170 0
-169 152 -946 170 0
-169 152 946 -170 0
169 -152 -947 170 0
169 -152 947 -170 0
169 152 -948 170 0
169 152 948 -170 0
-170 -153 -949 171 0
-170 -153 949 -171 0
-170 153 -950 171 0
-170 153 950 -171 0
170 -153 -951 171 0
170 -153 951 -171 0
170 153 -952 171 0
170 153 952 -171 0
-171 -154 -953 172 0
-171 -154 953 -172 0
-171 154 -954 172 0
-171 154 954 -172 0
171 -154 -955 172 0
171 -154 955 -172 0
171 154 -956 172 0
171 154 956 -172 0
-172 -155 -957 173 0
-172 -155 957 -173 0
-172 155 -958 173 0
-172 155 958 -173 0
172 -155 -959 173 0
172 -155 959 -173 0
172 155 -960 173 0
172 155 960 -173 0
-173 -156  -174 0
-173 156 174 0
173 -156  -174 0
173 156  -174 0
-174 -157  -175 0
-174 157  -175 0
174 -157 175 0
174 157  -175 0
-175 -158  -176 0
-175 158 176 0
175 -158  -176 0
175 158 176 0
-176 -159 -973 177 0
-176 -159 973 -177 0
-176 159 -974 177 0
-176 159 974 -177 0
176 -159 -975 177 0
176 -159 975 -177 0
176 159 -976 177 0
176 159 976 -177 0
-177 -160 -977 178 0
-177 -160 977 -178 0
-177 160 -978 178 0
-177 160 978 -178 0
177 -160 -979 178 0
177 -160 979 -178 0
177 160 -980 178 0
177 160 980 -178 0
-178 -161 179 0
-178 161 179 0
178 -161 179 0
178 161  -179 0
-179 -162 180 0
-179 162  -180 0
179 -162 180 0
179 162 180 0
-163 -989 181 0
-163 989 -181 0
163 -990 181 0
163 990 -181 0
-181 -164 -991 182 0
-181 -164 991 -182 0
-181 164 -992 182 0
-181 164 992 -182 0
181 -164 -993 182 0
181 -164 993 -182 0
181 164 -994 182 0
181 164 994 -182 0
-182 -165 183 0
-182 165  -183 0
182 -165 183 0
182 165  -183 0
-183 -166 -999 184 0
-183 -166 999 -184 0
-183 166 -1000 184 0
-183 166 1000 -184 0
183 -166 -1001 184 0
183 -166 1001 -184 0
183 166 -1002 184 0
183 166 1002 -184 0
-184 -167 -1003 185 0
-184 -167 1003 -185 0
-184 167 -1004 185 0
-184 167 1004 -185 0
184 -167 -1005 185 0
184 -167 1005 -185 0
184 167 -1006 185 0
184 167 1006 -185 0
-185 -168 186 0
-185 168 186 0
185 -168  -186 0
185 168  -186 0
-186 -169 187 0
-186 169  -187 0
186 -169  -187 0
186 169  -187 0
-187 -170 -1015 188 0
-187 -170 1015 -188 0
-187 170 -1016 188 0
-187 170 1016 -188 0
187 -170 -1017 188 0
187 -170 1017 -188 0
187 170 -1018 188 0
187 170 1018 -188 0
-188 -171 189 0
-188 171 189 0
188 -171 189 0
188 171  -189 0
-189 -172 -1023 190 0
-189 -172 1023 -190 0
-189 172 -1024 190 0
-189 172 1024 -190 0
189 -172 -1025 190 0
189 -172 1025 -190 0
189 172 -1026 190 0
189 172 1026 -190 0
-190 -173 -1027 191 0
-190 -173 1027 -191 0
-190 173 -1028 191 0
-190 173 1028 -191 0
190 -173 -1029 191 0
190 -173 1029 -191 0
190 173 -1030 191 0
190 173 1030 -191 0
-191 -174 192 0
-191 174 192 0
191 -174  -192 0
191 174 192 0
-192 -175 -1035 193 0
-192 -175 1035 -193 0
-192 175 -1036 193 0
-192 175 1036 -193 0
192 -175 -1037 193 0
192 -175 1037 -193 0
192 175 -1038 193 0
192 175 1038 -193 0
-193 -176 -1039 194 0
-193 -176 1039 -194 0
-193 176 -1040 194 0
-193 176 1040 -194 0
193 -176 -1041 194 0
193 -176 1041 -194 0
193 176 -1042 194 0
193 176 1042 -194 0
-194 -177 -1043 195 0
-194 -177 1043 -195 0
-194 177 -1044 195 0
-194 177 1044 -195 0
194 -177 -1045 195 0
194 -177 1045 -195 0
194 177 -1046 195 0
194 177 1046 -195 0
-195 -178  -196 0
-195 178 196 0
195 -178 196 0
195 178 196 0
-196 -179  -197 0
-196 179 197 0
196 -179 197 0
196 179  -197 0
-197 -180  -198 0
-197 180 198 0
197 -180 198 0
197 180 198 0
-181 199 0
181  -199 0
-199 -182 -1061 200 0
-199 -182 1061 -200 0
-199 182 -1062 200 0
-199 182 1062 -200 0
199 -182 -1063 200 0
199 -182 1063 -200 0
199 182 -1064 200 0
199 182 1064 -200 0
-200 -183 -1065 201 0
-200 -183 1065 -201 0
-200 183 -1066 201 0
-200 183 1066 -201 0
200 -183 -1067 201 0
200 -183 1067 -201 0
200 183 -1068 201 0
200 183 1068 -201 0
-201 -184 202 0
-201 184  -202 0
201 -184 202 0
201 184 202 0
-202 -185 -1073 203 0
-202 -185 1073 -203 0
-202 185 -1074 203 0
-202 185 1074 -203 0
202 -185 -1075 203 0
202 -185 1075 -203 0
202 185 -1076 203 0
202 185 1076 -203 0
-203 -186 -1077 204 0
-203 -186 1077 -204 0
-203 186 -1078 204 0
-203 186 1078 -204 0
203 -186 -1079 204 0
203 -186 1079 -204 0
203 186 -1080 204 0
203 186 1080 -204 0
-204 -187 -1081 205 0
-204 -187 1081 -205 0
-204 187 -1082 205 0
-204 187 1082 -205 0
204 -187 -1083 205 0
204 -187 1083 -205 0
204 187 -1084 205 0
204 187 1084 -205 0
-205 -188 -1085 206 0
-205 -188 1085 -206 0
-205 188 -1086 206 0
-205 188 1086 -206 0
205 -188 -1087 206 0
205 -188 1087 -206 0
205 188 -1088 206 0
205 188 1088 -206 0
-206 -189 -1089 207 0
-206 -189 1089 -207 0
-206 189 -1090 207 0
-206 189 1090 -207 0
206 -189 -1091 207 0
206 -189 1091 -207 0
206 189 -1092 207 0
206 189 1092 -207 0
-207 -190 208 0
-207 190  -208 0
207 -190  -208 0
207 190  -208 0
-208 -191 209 0
-208 191  -209 0
208 -191 209 0
208 191  -209 0
-209 -192 210 0
-209 192  -210 0
209 -192 210 0
209 192 210 0
-210 -193 -1105 211 0
-210 -193 1105 -211 0
-210 193 -1106 211 0
-210 193 1106 -211 0
210 -193 -1107 211 0
210 -193 1107 -211 0
210 193 -1108 211 0
210 193 1108 -211 0
-211 -194 -1109 212 0
-211 -194 1109 -212 0
-211 194 -1110 212 0
-211 194 1110 -212 0
211 -194 -1111 212 0
211 -194 1111 -212 0
211 194 -1112 212 0
211 194 1112 -212 0
-212 -195 -1113 213 0
-212 -195 1113 -213 0
-212 195 -1114 213 0
-212 195 1114 -213 0
212 -195 -1115 213 0
212 -195 1115 -213 0
212 195 -1116 213 0
212 195 1116 -213 0
-213 -196 -1117 214 0
-213 -196 1117 -214 0
-213 196 -1118 214 0
-213 196 1118 -214 0
213 -196 -1119 214 0
213 -196 1119 -214 0
213 196 -1120 214 0
213 196 1120 -214 0
-214 -197 215 0
-214 197 215 0
214 -197 215 0
214 197  -215 0
-215 -198 -1125 216 0
-215 -198 1125 -216 0
-215 198 -1126 216 0
-215 198 1126 -216 0
215 -198 -1127 216 0
215 -198 1127 -216 0
215 198 -1128 216 0
215 198 1128 -216 0
-199 217 0
199  -217 0
-217 -200  -218 0
-217 200 218 0
217 -200 218 0
217 200  -218 0
-218 -201 219 0
-218 201  -219 0
218 -201 219 0
218 201 219 0
-219 -202  -220 0
-219 202  -220 0
219 -202  -220 0
219 202 220 0
-220 -203  -221 0
-220 203 221 0
220 -203 221 0
220 203  -221 0
-221 -204 -1147 222 0
-221 -204 1147 -222 0
-221 204 -1148 222 0
-221 204 1148 -222 0
221 -204 -1149 222 0
221 -204 1149 -222 0
221 204 -1150 222 0
221 204 1150 -222 0
-222 -205 -1151 223 0
-222 -205 1151 -223 0
-222 205 -1152 223 0
-222 205 1152 -223 0
222 -205 -1153 223 0
222 -205 1153 -223 0
222 205 -1154 223 0
222 205 1154 -223 0
-223 -206 -1155 224 0
-223 -206 1155 -224 0
-223 206 -1156 224 0
-223 206 1156 -224 0
223 -206 -1157 224 0
223 -206 1157 -224 0
223 206 -1158 224 0
223 206 1158 -224 0
-224 -207 -1159 225 0
-224 -207 1159 -225 0
-224 207 -1160 225 0
-224 207 1160 -225 0
224 -207 -1161 225 0
224 -207 1161 -225 0
224 207 -1162 225 0
224 207 1162 -225 0
-225 -208  -226 0
-225 208  -226 0
225 -208  -226 0
225 208 226 0
-226 -209 227 0
-226 209  -227 0
226 -209  -227 0
226 209 227 0
-227 -210 228 0
-227 210 228 0
227 -210 228 0
227 210  -228 0
-228 -211 -1175 229 0
-228 -211 1175 -229 0
-228 211 -1176 229 0
-228 211 1176 -229 0
228 -211 -1177 229 0
228 -211 1177 -229 0
228 211 -1178 229 0
228 211 1178 -229 0
-229 -212 230 0
-229 212  -230 0
229 -212  -230 0
229 212  -230 0
-230 -213 -1183 231 0
-230 -213 1183 -231 0
-230 213 -1184 231 0
-230 213 1184 -231 0
230 -213 -1185 231 0
230 -213 1185 -231 0
230 213 -1186 231 0
230 213 1186 -231 0
-231 -214  -232 0
-231 214 232 0
231 -214  -232 0
231 214  -232 0
-232 -215  -233 0
-232 215 233 0
232 -215 233 0
232 215  -233 0
-233 -216 -1195 234 0
-233 -216 1195 -234 0
-233 216 -1196 234 0
-233 216 1196 -234 0
233 -216 -1197 234 0
233 -216 1197 -234 0
233 216 -1198 234 0
233 216 1198 -234 0
-217 -1199 235 0
-217 1199 -235 0
217 -1200 235 0
217 1200 -235 0
-235 -218 236 0
-235 218  -236 0
235 -218 236 0
235 218  -236 0
-236 -219 237 0
-236 219  -237 0
236 -219 237 0
236 219  -237 0
-237 -220 238 0
-237 220 238 0
237 -220  -238 0
237 220 238 0
-238 -221  -239 0
-238 221 239 0
238 -221 239 0
238 221  -239 0
-239 -222  -240 0
-239 222 240 0
239 -222 240 0
239 222  -240 0
-240 -223 241 0
-240 223 241 0
240 -223  -241 0
240 223 241 0
-241 -224 -1225 242 0
-241 -224 1225 -242 0
-241 224 -1226 242 0
-241 224 1226 -242 0
241 -224 -1227 242 0
241 -224 1227 -242 0
241 224 -1228 242 0
241 224 1228 -242 0
-242 -225 -1229 243 0
-242 -225 1229 -243 0
-242 225 -1230 243 0
-242 225 1230 -243 0
242 -225 -1231 243 0
242 -225 1231 -243 0
242 225 -1232 243 0
242 225 1232 -243 0
-243 -226 244 0
-243 226  -244 0
243 -226  -244 0
243 226 244 0
-244 -227 245 0
-244 227 245 0
244 -227  -245 0
244 227  -245 0
-245 -228 246 0
-245 228  -246 0
245 -228 246 0
245 228 246 0
-246 -229 247 0
-246 229  -247 0
246 -229 247 0
246 229 247 0
-247 -230 248 0
-247 230 248 0
247 -230 248 0
247 230  -248 0
-248 -231 249 0
-248 231 249 0
248 -231 249 0
248 231  -249 0
-249 -232 -1257 250 0
-249 -232 1257 -250 0
-249 232 -1258 250 0
-249 232 1258 -250 0
249 -232 -1259 250 0
249 -232 1259 -250 0
249 232 -1260 250 0
249 232 1260 -250 0
-250 -233 251 0
-250 233 251 0
250 -233  -251 0
250 233  -251 0
-251 -234 -1265 252 0
-251 -234 1265 -252 0
-251 234 -1266 252 0
-251 234 1266 -252 0
251 -234 -1267 252 0
251 -234 1267 -252 0
251 234 -1268 252 0
251 234 1268 -252 0
-235 -1269 253 0
-235 1269 -253 0
235 -1270 253 0
235 1270 -253 0
-253 -236 -1271 254 0
-253 -236 1271 -254 0
-253 236 -1272 254 0
-253 236 1272 -254 0
253 -236 -1273 254 0
253 -236 1273 -254 0
253 236 -1274 254 0
253 236 1274 -254 0
-254 -237  -255 0
-254 237  -255 0
254 -237 255 0
254 237  -255 0
-255 -238  -256 0
-255 238  -256 0
255 -238 256 0
255 238  -256 0
-256 -239 257 0
-256 239  -257 0
256 -239  -257 0
256 239 257 0
-257 -240 -1287 258 0
-257 -240 1287 -258 0
-257 240 -1288 258 0
-257 240 1288 -258 0
257 -240 -1289 258 0
257 -240 1289 -258 0
257 240 -1290 258 0
257 240 1290 -258 0
-258 -241 -1291 259 0
-258 -241 1291 -259 0
-258 241 -1292 259 0
-258 241 1292 -259 0
258 -241 -1293 259 0
258 -241 1293 -259 0
258 241 -1294 259 0
258 241 1294 -259 0
-259 -242  -260 0
-259 242  -260 0
259 -242  -260 0
259 242 260 0
-260 -243 261 0
-260 243 261 0
260 -243 261 0
260 243  -261 0
-261 -244 262 0
-261 244  -262 0
261 -244 262 0
261 244 262 0
-262 -245 263 0
-262 245  -263 0
262 -245 263 0
262 245  -263 0
-263 -246  -264 0
-263 246  -264 0
263 -246 264 0
263 246  -264 0
-264 -247  -265 0
-264 247  -265 0
264 -247  -265 0
264 247 265 0
-265 -248 -1319 266 0
-265 -248 1319 -266 0
-265 248 -1320 266 0
-265 248 1320 -266 0
265 -248 -1321 266 0
265 -248 1321 -266 0
265 248 -1322 266 0
265 248 1322 -266 0
-266 -249 -1323 267 0
-266 -249 1323 -267 0
-266 249 -1324 267 0
-266 249 1324 -267 0
266 -249 -1325 267 0
266 -249 1325 -267 0
266 249 -1326 267 0
266 249 1326 -267 0
-267 -250 268 0
-267 250  -268 0
267 -250 268 0
267 250 268 0
-268 -251  -269 0
-268 251 269 0
268 -251 269 0
268 251  -269 0
-269 -252 -1335 270 0
-269 -252 1335 -270 0
-269 252 -1336 270 0
-269 252 1336 -270 0
269 -252 -1337 270 0
269 -252 1337 -270 0
269 252 -1338 270 0
269 252 1338 -270 0
-253 -1339 271 0
-253 1339 -271 0
253 -1340 271 0
253 1340 -271 0
-271 -254 272 0
-271 254 272 0
271 -254  -272 0
271 254  -272 0
-272 -255 273 0
-272 255  -273 0
272 -255  -273 0
272 255  -273 0
-273 -256  -274 0
-273 256 274 0
273 -256 274 0
273 256 274 0
-274 -257 275 0
-274 257  -275 0
274 -257 275 0
274 257 275 0
-275 -258  -276 0
-275 258  -276 0
275 -258 276 0
275 258 276 0
-276 -259 277 0
-276 259  -277 0
276 -259  -277 0
276 259  -277 0
-277 -260 278 0
-277 260  -278 0
277 -260  -278 0
277 260  -278 0
-278 -261 279 0
-278 261  -279 0
278 -261 279 0
278 261  -279 0
-279 -262 280 0
-279 262 280 0
279 -262  -280 0
279 262 280 0
-280 -263 -1377 281 0
-280 -263 1377 -281 0
-280 263 -1378 281 0
-280 263 1378 -281 0
280 -263 -1379 281 0
280 -263 1379 -281 0
280 263 -1380 281 0
280 263 1380 -281 0
-281 -264 -1381 282 0
-281 -264 1381 -282 0
-281 264 -1382 282 0
-281 264 1382 -282 0
281 -264 -1383 282 0
281 -264 1383 -282 0
281 264 -1384 282 0
281 264 1384 -282 0
-282 -265  -283 0
-282 265 283 0
282 -265  -283 0
282 265  -283 0
-283 -266 -1389 284 0
-283 -266 1389 -284 0
-283 266 -1390 284 0
-283 266 1390 -284 0
283 -266 -1391 284 0
283 -266 1391 -284 0
283 266 -1392 284 0
283 266 1392 -284 0
-284 -267  -285 0
-284 267  -285 0
284 -267 285 0
284 267  -285 0
-285 -268 -1397 286 0
-285 -268 1397 -286 0
-285 268 -1398 286 0
-285 268 1398 -286 0
285 -268 -1399 286 0
285 -268 1399 -286 0
285 268 -1400 286 0
285 268 1400 -286 0
-286 -269  -287 0
-286 269 287 0
286 -269 287 0
286 269  -287 0
-287 -270 288 0
-287 270 288 0
287 -270  -288 0
287 270 288 0
-271  -289 0
271 289 0
-289 -272 290 0
-289 272  -290 0
289 -272  -290 0
289 272  -290 0
-290 -273 -1415 291 0
-290 -273 1415 -291 0
-290 273 -1416 291 0
-290 273 1416 -291 0
290 -273 -1417 291 0
290 -273 1417 -291 0
290 273 -1418 291 0
290 273 1418 -291 0
-291 -274 -1419 292 0
-291 -274 1419 -292 0
-291 274 -1420 292 0
-291 274 1420 -292 0
291 -274 -1421 292 0
291 -274 1421 -292 0
291 274 -1422 292 0
291 274 1422 -292 0
-292 -275 293 0
-292 275  -293 0
292 -275 293 0
292 275 293 0
-293 -276  -294 0
-293 276 294 0
293 -276  -294 0
293 276 294 0
-294 -277 -1431 295 0
-294 -277 1431 -295 0
-294 277 -1432 295 0
-294 277 1432 -295 0
294 -277 -1433 295 0
294 -277 1433 -295 0
294 277 -1434 295 0
294 277 1434 -295 0
-295 -278 -1435 296 0
-295 -278 1435 -296 0
-295 278 -1436 296 0
-295 278 1436 -296 0
295 -278 -1437 296 0
295 -278 1437 -296 0
295 278 -1438 296 0
295 278 1438 -296 0
-296 -279 297 0
-296 279  -297 0
296 -279  -297 0
296 279 297 0
-297 -280 298 0
-297 280 298 0
297 -280  -298 0
297 280 298 0
-298 -281 299 0
-298 281 299 0
298 -281 299 0
298 281  -299 0
-299 -282 300 0
-299 282 300 0
299 -282 300 0
299 282  -300 0
-300 -283 301 0
-300 283  -301 0
300 -283 301 0
300 283 301 0
-301 -284 302 0
-301 284  -302 0
301 -284 302 0
301 284  -302 0
-302 -285  -303 0
-302 285  -303 0
302 -285  -303 0
302 285 303 0
-303 -286 304 0
-303 286 304 0
303 -286  -304 0
303 286 304 0
-304 -287 -1471 305 0
-304 -287 1471 -305 0
-304 287 -1472 305 0
-304 287 1472 -305 0
304 -287 -1473 305 0
304 -287 1473 -305 0
304 287 -1474 305 0
304 287 1474 -305 0
-305 -288  -306 0
-305 288  -306 0
305 -288  -306 0
305 288 306 0
-289 307 0
289  -307 0
-307 -290 -1481 308 0
-307 -290 1481 -308 0
-307 290 -1482 308 0
-307 290 1482 -308 0
307 -290 -1483 308 0
307 -290 1483 -308 0
307 290 -1484 308 0
307 290 1484 -308 0
-308 -291 -1485 309 0
-308 -291 1485 -309 0
-308 291 -1486 309 0
-308 291 1486 -309 0
308 -291 -1487 309 0
308 -291 1487 -309 0
308 291 -1488 309 0
308 291 1488 -309 0
-309 -292  -310 0
-309 292 310 0
309 -292 310 0
309 292 310 0
-310 -293 -1493 311 0
-310 -293 1493 -311 0
-310 293 -1494 311 0
-310 293 1494 -311 0
310 -293 -1495 311 0
310 -293 1495 -311 0
310 293 -1496 311 0
310 293 1496 -311 0
-311 -294  -312 0
-311 294  -312 0
311 -294 312 0
311 294  -312 0
-312 -295 -1501 313 0
-312 -295 1501 -313 0
-312 295 -1502 313 0
-312 295 1502 -313 0
312 -295 -1503 313 0
312 -295 1503 -313 0
312 295 -1504 313 0
312 295 1504 -313 0
-313 -296  -314 0
-313 296  -314 0
313 -296  -314 0
313 296 314 0
-314 -297 -1509 315 0
-314 -297 1509 -315 0
-314 297 -1510 315 0
-314 297 1510 -315 0
314 -297 -1511 315 0
314 -297 1511 -315 0
314 297 -1512 315 0
314 297 1512 -315 0
-315 -298 -1513 316 0
-315 -298 1513 -316 0
-315 298 -1514 316 0
-315 298 1514 -316 0
315 -298 -1515 316 0
315 -298 1515 -316 0
315 298 -1516 316 0
315 298 1516 -316 0
-316 -299 -1517 317 0
-316 -299 1517 -317 0
-316 299 -1518 317 0
-316 299 1518 -317 0
316 -299 -1519 317 0
316 -299 1519 -317 0
316 299 -1520 317 0
316 299 1520 -317 0
-317 -300  -318 0
-317 300  -318 0
317 -300  -318 0
317 300 318 0
-318 -301 319 0
-318 301  -319 0
318 -301  -319 0
318 301 319 0
-319 -302  -320 0
-319 302 320 0
319 -302 320 0
319 302  -320 0
-320 -303 -1533 321 0
-320 -303 1533 -321 0
-320 303 -1534 321 0
-320 303 1534 -321 0
320 -303 -1535 321 0
320 -303 1535 -321 0
320 303 -1536 321 0
320 303 1536 -321 0
-321 -304 -1537 322 0
-321 -304 1537 -322 0
-321 304 -1538 322 0
-321 304 1538 -322 0
321 -304 -1539 322 0
321 -304 1539 -322 0
321 304 -1540 322 0
321 304 1540 -322 0
-322 -305  -323 0
-322 305 323 0
322 -305 323 0
322 305 323 0
-323 -306 324 0
-323 306  -324 0
323 -306  -324 0
323 306  -324 0
324 0
